Minimize
 obj: 4 x_0_1_k + 6 x_0_2_k + 9 x_0_3_k + 4 x_1_0_k + 3 x_1_2_k + 6 x_1_3_k + 6 x_2_0_k + 3 x_2_1_k + 3 x_2_3_k + 9 x_3_0_k + 6 x_3_1_k + 3 x_3_2_k + 4 x_0_1_k + 6 x_0_2_k + 9 x_0_3_k + 4 x_1_0_k + 3 x_1_2_k + 6 x_1_3_k + 6 x_2_0_k + 3 x_2_1_k + 3 x_2_3_k + 9 x_3_0_k + 6 x_3_1_k + 3 x_3_2_k + 4 x_0_1_k + 6 x_0_2_k + 9 x_0_3_k + 4 x_1_0_k + 3 x_1_2_k + 6 x_1_3_k + 6 x_2_0_k + 3 x_2_1_k + 3 x_2_3_k + 9 x_3_0_k + 6 x_3_1_k + 3 x_3_2_k + 4 x_0_1_k + 6 x_0_2_k + 9 x_0_3_k + 4 x_1_0_k + 3 x_1_2_k + 6 x_1_3_k + 6 x_2_0_k + 3 x_2_1_k + 3 x_2_3_k + 9 x_3_0_k + 6 x_3_1_k + 3 x_3_2_k
Subject To
 demand_1: y_1_1 + y_1_2 + y_1_3 + y_1_4 = 4
 demand_2: y_2_1 + y_2_2 + y_2_3 + y_2_4 = 5
 demand_3: y_3_1 + y_3_2 + y_3_3 + y_3_4 = 6
 capacity_1: y_1_1 + y_2_1 + y_3_1 <= 10
 capacity_2: y_1_2 + y_2_2 + y_3_2 <= 10
 capacity_3: y_1_3 + y_2_3 + y_3_3 <= 10
 capacity_4: y_1_4 + y_2_4 + y_3_4 <= 10
 flow_0_1: x_0_1_1 + x_0_2_1 + x_0_3_1 - x_1_0_1 - x_2_0_1 - x_3_0_1 = 0
 flow_1_1: x_1_0_1 + x_1_2_1 + x_1_3_1 - x_0_1_1 - x_2_1_1 - x_3_1_1 = 0
 flow_2_1: x_2_0_1 + x_2_1_1 + x_2_3_1 - x_0_2_1 - x_1_2_1 - x_3_2_1 = 0
 flow_3_1: x_3_0_1 + x_3_1_1 + x_3_2_1 - x_0_3_1 - x_1_3_1 - x_2_3_1 = 0
 flow_0_2: x_0_1_2 + x_0_2_2 + x_0_3_2 - x_1_0_2 - x_2_0_2 - x_3_0_2 = 0
 flow_1_2: x_1_0_2 + x_1_2_2 + x_1_3_2 - x_0_1_2 - x_2_1_2 - x_3_1_2 = 0
 flow_2_2: x_2_0_2 + x_2_1_2 + x_2_3_2 - x_0_2_2 - x_1_2_2 - x_3_2_2 = 0
 flow_3_2: x_3_0_2 + x_3_1_2 + x_3_2_2 - x_0_3_2 - x_1_3_2 - x_2_3_2 = 0
 flow_0_3: x_0_1_3 + x_0_2_3 + x_0_3_3 - x_1_0_3 - x_2_0_3 - x_3_0_3 = 0
 flow_1_3: x_1_0_3 + x_1_2_3 + x_1_3_3 - x_0_1_3 - x_2_1_3 - x_3_1_3 = 0
 flow_2_3: x_2_0_3 + x_2_1_3 + x_2_3_3 - x_0_2_3 - x_1_2_3 - x_3_2_3 = 0
 flow_3_3: x_3_0_3 + x_3_1_3 + x_3_2_3 - x_0_3_3 - x_1_3_3 - x_2_3_3 = 0
 flow_0_4: x_0_1_4 + x_0_2_4 + x_0_3_4 - x_1_0_4 - x_2_0_4 - x_3_0_4 = 0
 flow_1_4: x_1_0_4 + x_1_2_4 + x_1_3_4 - x_0_1_4 - x_2_1_4 - x_3_1_4 = 0
 flow_2_4: x_2_0_4 + x_2_1_4 + x_2_3_4 - x_0_2_4 - x_1_2_4 - x_3_2_4 = 0
 flow_3_4: x_3_0_4 + x_3_1_4 + x_3_2_4 - x_0_3_4 - x_1_3_4 - x_2_3_4 = 0
 depot_departure_1: x_0_1_1 + x_0_2_1 + x_0_3_1 <= 1
 depot_departure_2: x_0_1_2 + x_0_2_2 + x_0_3_2 <= 1
 depot_departure_3: x_0_1_3 + x_0_2_3 + x_0_3_3 <= 1
 depot_departure_4: x_0_1_4 + x_0_2_4 + x_0_3_4 <= 1
 link_1_1: y_1_1 - 4 x_0_1_1 - x_2_1_1 - x_3_1_1 <= 0
 link_1_2: y_1_2 - 4 x_0_1_2 - x_2_1_2 - x_3_1_2 <= 0
 link_1_3: y_1_3 - 4 x_0_1_3 - x_2_1_3 - x_3_1_3 <= 0
 link_1_4: y_1_4 - 4 x_0_1_4 - x_2_1_4 - x_3_1_4 <= 0
 link_2_1: y_2_1 - 5 x_0_2_1 - x_1_2_1 - x_3_2_1 <= 0
 link_2_2: y_2_2 - 5 x_0_2_2 - x_1_2_2 - x_3_2_2 <= 0
 link_2_3: y_2_3 - 5 x_0_2_3 - x_1_2_3 - x_3_2_3 <= 0
 link_2_4: y_2_4 - 5 x_0_2_4 - x_1_2_4 - x_3_2_4 <= 0
 link_3_1: y_3_1 - 6 x_0_3_1 - x_1_3_1 - x_2_3_1 <= 0
 link_3_2: y_3_2 - 6 x_0_3_2 - x_1_3_2 - x_2_3_2 <= 0
 link_3_3: y_3_3 - 6 x_0_3_3 - x_1_3_3 - x_2_3_3 <= 0
 link_3_4: y_3_4 - 6 x_0_3_4 - x_1_3_4 - x_2_3_4 <= 0
 subtour_1_2_1: u_1_1 - u_2_1 + 3 x_1_2_1 <= 2
 subtour_1_3_1: u_1_1 - u_3_1 + 3 x_1_3_1 <= 2
 subtour_2_1_1: u_2_1 - u_1_1 + 3 x_2_1_1 <= 2
 subtour_2_3_1: u_2_1 - u_3_1 + 3 x_2_3_1 <= 2
 subtour_3_1_1: u_3_1 - u_1_1 + 3 x_3_1_1 <= 2
 subtour_3_2_1: u_3_1 - u_2_1 + 3 x_3_2_1 <= 2
 subtour_1_2_2: u_1_2 - u_2_2 + 3 x_1_2_2 <= 2
 subtour_1_3_2: u_1_2 - u_3_2 + 3 x_1_3_2 <= 2
 subtour_2_1_2: u_2_2 - u_1_2 + 3 x_2_1_2 <= 2
 subtour_2_3_2: u_2_2 - u_3_2 + 3 x_2_3_2 <= 2
 subtour_3_1_2: u_3_2 - u_1_2 + 3 x_3_1_2 <= 2
 subtour_3_2_2: u_3_2 - u_2_2 + 3 x_3_2_2 <= 2
 subtour_1_2_3: u_1_3 - u_2_3 + 3 x_1_2_3 <= 2
 subtour_1_3_3: u_1_3 - u_3_3 + 3 x_1_3_3 <= 2
 subtour_2_1_3: u_2_3 - u_1_3 + 3 x_2_1_3 <= 2
 subtour_2_3_3: u_2_3 - u_3_3 + 3 x_2_3_3 <= 2
 subtour_3_1_3: u_3_3 - u_1_3 + 3 x_3_1_3 <= 2
 subtour_3_2_3: u_3_3 - u_2_3 + 3 x_3_2_3 <= 2
 subtour_1_2_4: u_1_4 - u_2_4 + 3 x_1_2_4 <= 2
 subtour_1_3_4: u_1_4 - u_3_4 + 3 x_1_3_4 <= 2
 subtour_2_1_4: u_2_4 - u_1_4 + 3 x_2_1_4 <= 2
 subtour_2_3_4: u_2_4 - u_3_4 + 3 x_2_3_4 <= 2
 subtour_3_1_4: u_3_4 - u_1_4 + 3 x_3_1_4 <= 2
 subtour_3_2_4: u_3_4 - u_2_4 + 3 x_3_2_4 <= 2
Bounds
 0 <= x_0_1_1 <= 1
 0 <= x_0_2_1 <= 1
 0 <= x_0_3_1 <= 1
 0 <= x_1_0_1 <= 1
 0 <= x_1_2_1 <= 1
 0 <= x_1_3_1 <= 1
 0 <= x_2_0_1 <= 1
 0 <= x_2_1_1 <= 1
 0 <= x_2_3_1 <= 1
 0 <= x_3_0_1 <= 1
 0 <= x_3_1_1 <= 1
 0 <= x_3_2_1 <= 1
 0 <= y_1_1
 0 <= y_2_1
 0 <= y_3_1
 0 <= x_0_1_2 <= 1
 0 <= x_0_2_2 <= 1
 0 <= x_0_3_2 <= 1
 0 <= x_1_0_2 <= 1
 0 <= x_1_2_2 <= 1
 0 <= x_1_3_2 <= 1
 0 <= x_2_0_2 <= 1
 0 <= x_2_1_2 <= 1
 0 <= x_2_3_2 <= 1
 0 <= x_3_0_2 <= 1
 0 <= x_3_1_2 <= 1
 0 <= x_3_2_2 <= 1
 0 <= y_1_2
 0 <= y_2_2
 0 <= y_3_2
 0 <= x_0_1_3 <= 1
 0 <= x_0_2_3 <= 1
 0 <= x_0_3_3 <= 1
 0 <= x_1_0_3 <= 1
 0 <= x_1_2_3 <= 1
 0 <= x_1_3_3 <= 1
 0 <= x_2_0_3 <= 1
 0 <= x_2_1_3 <= 1
 0 <= x_2_3_3 <= 1
 0 <= x_3_0_3 <= 1
 0 <= x_3_1_3 <= 1
 0 <= x_3_2_3 <= 1
 0 <= y_1_3
 0 <= y_2_3
 0 <= y_3_3
 0 <= x_0_1_4 <= 1
 0 <= x_0_2_4 <= 1
 0 <= x_0_3_4 <= 1
 0 <= x_1_0_4 <= 1
 0 <= x_1_2_4 <= 1
 0 <= x_1_3_4 <= 1
 0 <= x_2_0_4 <= 1
 0 <= x_2_1_4 <= 1
 0 <= x_2_3_4 <= 1
 0 <= x_3_0_4 <= 1
 0 <= x_3_1_4 <= 1
 0 <= x_3_2_4 <= 1
 0 <= y_1_4
 0 <= y_2_4
 0 <= y_3_4
Binary
 x_0_1_1
 x_0_2_1
 x_0_3_1
 x_1_0_1
 x_1_2_1
 x_1_3_1
 x_2_0_1
 x_2_1_1
 x_2_3_1
 x_3_0_1
 x_3_1_1
 x_3_2_1
 x_0_1_2
 x_0_2_2
 x_0_3_2
 x_1_0_2
 x_1_2_2
 x_1_3_2
 x_2_0_2
 x_2_1_2
 x_2_3_2
 x_3_0_2
 x_3_1_2
 x_3_2_2
 x_0_1_3
 x_0_2_3
 x_0_3_3
 x_1_0_3
 x_1_2_3
 x_1_3_3
 x_2_0_3
 x_2_1_3
 x_2_3_3
 x_3_0_3
 x_3_1_3
 x_3_2_3
 x_0_1_4
 x_0_2_4
 x_0_3_4
 x_1_0_4
 x_1_2_4
 x_1_3_4
 x_2_0_4
 x_2_1_4
 x_2_3_4
 x_3_0_4
 x_3_1_4
 x_3_2_4
End